c " random instance " 
p edges 200 4206
e 1 2
e 1 6
e 1 8
e 1 11
e 1 12
e 1 16
e 1 21
e 1 22
e 1 25
e 1 27
e 1 28
e 1 29
e 1 30
e 1 36
e 1 43
e 1 50
e 1 54
e 1 56
e 1 66
e 1 68
e 1 71
e 1 78
e 1 86
e 1 92
e 1 94
e 1 101
e 1 114
e 1 118
e 1 120
e 1 121
e 1 129
e 1 130
e 1 133
e 1 134
e 1 140
e 1 143
e 1 146
e 1 155
e 1 162
e 1 170
e 1 175
e 1 176
e 1 178
e 1 181
e 1 184
e 1 194
e 1 195
e 1 199
e 2 7
e 2 15
e 2 20
e 2 24
e 2 29
e 2 30
e 2 31
e 2 32
e 2 34
e 2 36
e 2 40
e 2 64
e 2 69
e 2 79
e 2 80
e 2 92
e 2 96
e 2 97
e 2 98
e 2 100
e 2 104
e 2 106
e 2 111
e 2 124
e 2 127
e 2 131
e 2 134
e 2 135
e 2 140
e 2 146
e 2 147
e 2 152
e 2 155
e 2 164
e 2 168
e 2 172
e 2 176
e 2 183
e 2 184
e 2 196
e 3 6
e 3 18
e 3 29
e 3 31
e 3 36
e 3 37
e 3 41
e 3 42
e 3 44
e 3 45
e 3 47
e 3 59
e 3 62
e 3 68
e 3 70
e 3 74
e 3 75
e 3 87
e 3 99
e 3 100
e 3 101
e 3 105
e 3 107
e 3 118
e 3 120
e 3 121
e 3 131
e 3 133
e 3 135
e 3 136
e 3 141
e 3 145
e 3 152
e 3 154
e 3 157
e 3 158
e 3 165
e 3 169
e 3 170
e 3 171
e 3 172
e 3 176
e 3 177
e 3 182
e 3 185
e 3 192
e 3 196
e 3 198
e 3 199
e 4 8
e 4 13
e 4 14
e 4 26
e 4 27
e 4 28
e 4 29
e 4 31
e 4 34
e 4 36
e 4 37
e 4 43
e 4 45
e 4 56
e 4 59
e 4 62
e 4 65
e 4 66
e 4 72
e 4 80
e 4 85
e 4 90
e 4 94
e 4 96
e 4 102
e 4 103
e 4 105
e 4 107
e 4 115
e 4 116
e 4 122
e 4 129
e 4 135
e 4 138
e 4 141
e 4 145
e 4 147
e 4 156
e 4 159
e 4 160
e 4 163
e 4 165
e 4 171
e 4 179
e 4 188
e 4 191
e 4 196
e 4 200
e 5 10
e 5 11
e 5 13
e 5 20
e 5 27
e 5 30
e 5 34
e 5 35
e 5 43
e 5 44
e 5 48
e 5 54
e 5 55
e 5 56
e 5 66
e 5 69
e 5 70
e 5 78
e 5 79
e 5 80
e 5 83
e 5 89
e 5 94
e 5 98
e 5 99
e 5 105
e 5 108
e 5 109
e 5 110
e 5 113
e 5 118
e 5 129
e 5 134
e 5 145
e 5 153
e 5 158
e 5 168
e 5 171
e 5 174
e 5 178
e 5 180
e 5 185
e 5 198
e 6 12
e 6 14
e 6 21
e 6 29
e 6 32
e 6 34
e 6 38
e 6 40
e 6 41
e 6 42
e 6 48
e 6 53
e 6 56
e 6 60
e 6 69
e 6 78
e 6 79
e 6 84
e 6 90
e 6 95
e 6 96
e 6 100
e 6 105
e 6 111
e 6 112
e 6 116
e 6 141
e 6 142
e 6 149
e 6 154
e 6 163
e 6 164
e 6 169
e 6 172
e 6 177
e 6 178
e 6 179
e 6 182
e 6 198
e 7 10
e 7 27
e 7 31
e 7 35
e 7 45
e 7 52
e 7 60
e 7 62
e 7 71
e 7 74
e 7 78
e 7 88
e 7 92
e 7 100
e 7 103
e 7 107
e 7 110
e 7 112
e 7 113
e 7 123
e 7 131
e 7 134
e 7 137
e 7 142
e 7 152
e 7 171
e 7 174
e 7 178
e 7 187
e 7 197
e 8 9
e 8 15
e 8 17
e 8 19
e 8 27
e 8 30
e 8 31
e 8 34
e 8 40
e 8 44
e 8 47
e 8 56
e 8 62
e 8 67
e 8 68
e 8 71
e 8 80
e 8 86
e 8 87
e 8 88
e 8 91
e 8 95
e 8 102
e 8 116
e 8 122
e 8 124
e 8 127
e 8 131
e 8 144
e 8 146
e 8 152
e 8 153
e 8 154
e 8 165
e 8 168
e 8 169
e 8 173
e 8 176
e 8 178
e 8 187
e 8 190
e 8 194
e 8 198
e 9 12
e 9 17
e 9 30
e 9 34
e 9 37
e 9 38
e 9 50
e 9 56
e 9 59
e 9 60
e 9 64
e 9 69
e 9 79
e 9 80
e 9 83
e 9 85
e 9 87
e 9 89
e 9 93
e 9 94
e 9 95
e 9 99
e 9 109
e 9 116
e 9 119
e 9 122
e 9 127
e 9 129
e 9 143
e 9 148
e 9 151
e 9 152
e 9 153
e 9 163
e 9 166
e 9 172
e 9 175
e 9 182
e 9 183
e 9 184
e 9 187
e 9 188
e 9 189
e 9 192
e 9 198
e 9 199
e 10 13
e 10 17
e 10 18
e 10 24
e 10 25
e 10 28
e 10 30
e 10 40
e 10 41
e 10 42
e 10 49
e 10 51
e 10 53
e 10 56
e 10 57
e 10 61
e 10 62
e 10 65
e 10 72
e 10 76
e 10 77
e 10 85
e 10 86
e 10 90
e 10 91
e 10 99
e 10 103
e 10 106
e 10 110
e 10 111
e 10 125
e 10 133
e 10 136
e 10 142
e 10 144
e 10 147
e 10 164
e 10 167
e 10 171
e 10 172
e 10 174
e 10 185
e 10 188
e 10 193
e 10 198
e 11 13
e 11 22
e 11 24
e 11 27
e 11 28
e 11 33
e 11 36
e 11 41
e 11 47
e 11 52
e 11 58
e 11 61
e 11 79
e 11 93
e 11 98
e 11 101
e 11 106
e 11 114
e 11 120
e 11 121
e 11 124
e 11 128
e 11 136
e 11 142
e 11 151
e 11 153
e 11 154
e 11 162
e 11 164
e 11 165
e 11 167
e 11 169
e 11 180
e 11 181
e 11 182
e 11 192
e 11 196
e 12 16
e 12 27
e 12 29
e 12 33
e 12 35
e 12 37
e 12 38
e 12 41
e 12 46
e 12 47
e 12 48
e 12 55
e 12 58
e 12 59
e 12 68
e 12 73
e 12 75
e 12 76
e 12 88
e 12 92
e 12 99
e 12 102
e 12 104
e 12 105
e 12 123
e 12 126
e 12 127
e 12 132
e 12 139
e 12 145
e 12 147
e 12 149
e 12 152
e 12 157
e 12 158
e 12 162
e 12 176
e 12 180
e 12 199
e 13 14
e 13 21
e 13 28
e 13 29
e 13 35
e 13 38
e 13 42
e 13 45
e 13 54
e 13 58
e 13 61
e 13 65
e 13 66
e 13 78
e 13 81
e 13 85
e 13 93
e 13 96
e 13 106
e 13 112
e 13 115
e 13 118
e 13 121
e 13 128
e 13 135
e 13 148
e 13 149
e 13 159
e 13 166
e 13 168
e 13 174
e 13 184
e 13 190
e 14 24
e 14 30
e 14 37
e 14 41
e 14 43
e 14 44
e 14 50
e 14 57
e 14 62
e 14 68
e 14 69
e 14 73
e 14 76
e 14 78
e 14 79
e 14 80
e 14 101
e 14 107
e 14 124
e 14 128
e 14 129
e 14 135
e 14 141
e 14 147
e 14 156
e 14 160
e 14 161
e 14 165
e 14 167
e 14 170
e 14 171
e 14 172
e 14 174
e 14 200
e 15 23
e 15 24
e 15 38
e 15 40
e 15 45
e 15 46
e 15 54
e 15 57
e 15 61
e 15 65
e 15 67
e 15 81
e 15 83
e 15 95
e 15 97
e 15 98
e 15 102
e 15 108
e 15 109
e 15 113
e 15 115
e 15 117
e 15 121
e 15 123
e 15 125
e 15 133
e 15 135
e 15 139
e 15 145
e 15 146
e 15 151
e 15 155
e 15 157
e 15 159
e 15 178
e 15 183
e 15 185
e 15 187
e 16 17
e 16 24
e 16 29
e 16 32
e 16 41
e 16 46
e 16 55
e 16 58
e 16 63
e 16 66
e 16 74
e 16 80
e 16 81
e 16 85
e 16 87
e 16 101
e 16 105
e 16 106
e 16 110
e 16 115
e 16 120
e 16 122
e 16 123
e 16 125
e 16 126
e 16 129
e 16 132
e 16 152
e 16 166
e 16 172
e 16 174
e 16 181
e 17 22
e 17 25
e 17 27
e 17 30
e 17 39
e 17 40
e 17 42
e 17 44
e 17 45
e 17 49
e 17 54
e 17 57
e 17 60
e 17 63
e 17 65
e 17 66
e 17 83
e 17 85
e 17 88
e 17 94
e 17 105
e 17 114
e 17 118
e 17 133
e 17 136
e 17 138
e 17 141
e 17 151
e 17 153
e 17 158
e 17 167
e 17 168
e 17 184
e 17 186
e 17 189
e 17 199
e 18 19
e 18 23
e 18 29
e 18 34
e 18 46
e 18 52
e 18 53
e 18 56
e 18 58
e 18 61
e 18 64
e 18 74
e 18 79
e 18 80
e 18 83
e 18 84
e 18 85
e 18 95
e 18 105
e 18 112
e 18 117
e 18 118
e 18 119
e 18 124
e 18 126
e 18 127
e 18 130
e 18 133
e 18 140
e 18 141
e 18 152
e 18 160
e 18 163
e 18 179
e 18 183
e 18 199
e 19 23
e 19 24
e 19 29
e 19 30
e 19 31
e 19 32
e 19 36
e 19 39
e 19 42
e 19 49
e 19 58
e 19 59
e 19 62
e 19 63
e 19 65
e 19 66
e 19 73
e 19 75
e 19 76
e 19 80
e 19 82
e 19 83
e 19 92
e 19 93
e 19 95
e 19 104
e 19 105
e 19 109
e 19 110
e 19 117
e 19 131
e 19 134
e 19 138
e 19 139
e 19 140
e 19 143
e 19 144
e 19 149
e 19 156
e 19 157
e 19 159
e 19 160
e 19 163
e 19 164
e 19 169
e 19 175
e 19 178
e 19 181
e 19 182
e 19 184
e 19 193
e 19 198
e 20 21
e 20 26
e 20 37
e 20 38
e 20 50
e 20 53
e 20 54
e 20 59
e 20 70
e 20 71
e 20 79
e 20 83
e 20 84
e 20 90
e 20 91
e 20 93
e 20 94
e 20 97
e 20 115
e 20 116
e 20 117
e 20 123
e 20 124
e 20 126
e 20 133
e 20 139
e 20 140
e 20 142
e 20 146
e 20 153
e 20 157
e 20 163
e 20 175
e 20 176
e 20 177
e 20 179
e 20 182
e 20 184
e 20 187
e 20 188
e 20 194
e 20 195
e 20 199
e 21 28
e 21 29
e 21 36
e 21 41
e 21 42
e 21 51
e 21 56
e 21 63
e 21 67
e 21 68
e 21 87
e 21 98
e 21 105
e 21 108
e 21 109
e 21 115
e 21 120
e 21 124
e 21 125
e 21 131
e 21 133
e 21 135
e 21 137
e 21 144
e 21 145
e 21 155
e 21 157
e 21 159
e 21 169
e 21 173
e 21 177
e 21 178
e 21 181
e 21 182
e 21 183
e 21 185
e 21 187
e 21 188
e 21 200
e 22 28
e 22 48
e 22 49
e 22 52
e 22 53
e 22 57
e 22 68
e 22 72
e 22 83
e 22 88
e 22 89
e 22 90
e 22 93
e 22 95
e 22 98
e 22 99
e 22 100
e 22 103
e 22 105
e 22 107
e 22 113
e 22 120
e 22 123
e 22 133
e 22 142
e 22 148
e 22 150
e 22 154
e 22 157
e 22 159
e 22 160
e 22 162
e 22 163
e 22 169
e 22 178
e 22 184
e 22 189
e 22 192
e 22 193
e 22 199
e 23 26
e 23 29
e 23 37
e 23 39
e 23 41
e 23 44
e 23 48
e 23 55
e 23 65
e 23 77
e 23 79
e 23 80
e 23 97
e 23 99
e 23 102
e 23 103
e 23 105
e 23 108
e 23 119
e 23 124
e 23 142
e 23 148
e 23 149
e 23 158
e 23 161
e 23 172
e 23 179
e 23 181
e 23 183
e 23 200
e 24 26
e 24 37
e 24 46
e 24 50
e 24 51
e 24 56
e 24 58
e 24 67
e 24 68
e 24 76
e 24 79
e 24 86
e 24 89
e 24 91
e 24 94
e 24 100
e 24 115
e 24 123
e 24 130
e 24 132
e 24 134
e 24 135
e 24 141
e 24 145
e 24 149
e 24 158
e 24 160
e 24 163
e 24 167
e 24 169
e 24 178
e 24 180
e 24 188
e 24 190
e 24 194
e 25 26
e 25 27
e 25 28
e 25 32
e 25 42
e 25 43
e 25 45
e 25 50
e 25 57
e 25 71
e 25 82
e 25 83
e 25 94
e 25 103
e 25 107
e 25 111
e 25 117
e 25 120
e 25 132
e 25 136
e 25 141
e 25 143
e 25 145
e 25 157
e 25 160
e 25 168
e 25 169
e 25 170
e 25 180
e 25 187
e 25 188
e 25 190
e 25 193
e 25 199
e 26 29
e 26 31
e 26 34
e 26 35
e 26 40
e 26 47
e 26 52
e 26 54
e 26 60
e 26 61
e 26 62
e 26 66
e 26 68
e 26 76
e 26 92
e 26 96
e 26 101
e 26 115
e 26 123
e 26 134
e 26 137
e 26 138
e 26 142
e 26 149
e 26 150
e 26 157
e 26 163
e 26 173
e 26 179
e 26 180
e 26 183
e 26 184
e 26 188
e 26 193
e 26 194
e 26 196
e 27 32
e 27 34
e 27 56
e 27 58
e 27 60
e 27 61
e 27 69
e 27 73
e 27 75
e 27 85
e 27 88
e 27 95
e 27 99
e 27 104
e 27 105
e 27 116
e 27 119
e 27 123
e 27 124
e 27 130
e 27 135
e 27 136
e 27 138
e 27 142
e 27 145
e 27 148
e 27 151
e 27 179
e 27 186
e 27 187
e 27 190
e 27 194
e 27 198
e 27 200
e 28 40
e 28 42
e 28 47
e 28 52
e 28 55
e 28 72
e 28 73
e 28 84
e 28 98
e 28 104
e 28 105
e 28 109
e 28 112
e 28 118
e 28 119
e 28 121
e 28 130
e 28 135
e 28 136
e 28 140
e 28 142
e 28 146
e 28 151
e 28 153
e 28 159
e 28 166
e 28 173
e 28 175
e 28 181
e 28 184
e 28 190
e 28 191
e 28 192
e 28 199
e 29 31
e 29 35
e 29 40
e 29 43
e 29 46
e 29 70
e 29 71
e 29 72
e 29 77
e 29 81
e 29 86
e 29 99
e 29 109
e 29 110
e 29 116
e 29 121
e 29 123
e 29 124
e 29 126
e 29 127
e 29 138
e 29 143
e 29 149
e 29 162
e 29 163
e 29 168
e 29 173
e 29 176
e 29 180
e 29 183
e 29 193
e 29 195
e 30 38
e 30 54
e 30 68
e 30 71
e 30 80
e 30 81
e 30 90
e 30 93
e 30 98
e 30 103
e 30 105
e 30 113
e 30 115
e 30 116
e 30 117
e 30 122
e 30 130
e 30 132
e 30 139
e 30 141
e 30 147
e 30 160
e 30 166
e 30 167
e 30 169
e 30 182
e 30 186
e 30 191
e 30 194
e 31 39
e 31 43
e 31 44
e 31 45
e 31 50
e 31 72
e 31 73
e 31 80
e 31 81
e 31 84
e 31 86
e 31 92
e 31 94
e 31 105
e 31 109
e 31 111
e 31 112
e 31 115
e 31 118
e 31 121
e 31 139
e 31 140
e 31 148
e 31 157
e 31 159
e 31 163
e 31 164
e 31 165
e 31 176
e 31 182
e 31 187
e 31 188
e 31 189
e 31 199
e 31 200
e 32 46
e 32 47
e 32 52
e 32 56
e 32 65
e 32 69
e 32 70
e 32 71
e 32 77
e 32 89
e 32 95
e 32 99
e 32 102
e 32 108
e 32 111
e 32 115
e 32 122
e 32 124
e 32 129
e 32 131
e 32 134
e 32 138
e 32 139
e 32 148
e 32 156
e 32 157
e 32 161
e 32 164
e 32 169
e 32 170
e 32 174
e 32 178
e 32 184
e 32 195
e 32 197
e 32 199
e 33 36
e 33 54
e 33 57
e 33 59
e 33 65
e 33 66
e 33 76
e 33 77
e 33 79
e 33 85
e 33 88
e 33 90
e 33 92
e 33 93
e 33 98
e 33 101
e 33 107
e 33 118
e 33 128
e 33 133
e 33 135
e 33 137
e 33 139
e 33 146
e 33 148
e 33 149
e 33 151
e 33 162
e 33 164
e 33 175
e 33 179
e 33 193
e 34 45
e 34 46
e 34 49
e 34 50
e 34 51
e 34 53
e 34 54
e 34 59
e 34 61
e 34 67
e 34 73
e 34 74
e 34 78
e 34 79
e 34 85
e 34 87
e 34 96
e 34 107
e 34 116
e 34 121
e 34 123
e 34 125
e 34 129
e 34 132
e 34 133
e 34 140
e 34 159
e 34 160
e 34 168
e 34 172
e 34 173
e 34 176
e 34 178
e 34 180
e 34 182
e 34 183
e 34 187
e 34 197
e 35 38
e 35 53
e 35 65
e 35 78
e 35 79
e 35 92
e 35 95
e 35 97
e 35 100
e 35 102
e 35 105
e 35 108
e 35 117
e 35 118
e 35 125
e 35 127
e 35 128
e 35 130
e 35 138
e 35 150
e 35 151
e 35 154
e 35 156
e 35 173
e 35 191
e 35 199
e 36 45
e 36 46
e 36 47
e 36 51
e 36 52
e 36 59
e 36 81
e 36 82
e 36 83
e 36 89
e 36 94
e 36 97
e 36 101
e 36 103
e 36 104
e 36 110
e 36 119
e 36 125
e 36 126
e 36 128
e 36 129
e 36 133
e 36 136
e 36 139
e 36 147
e 36 155
e 36 174
e 36 175
e 36 183
e 36 185
e 36 186
e 36 188
e 37 38
e 37 42
e 37 43
e 37 49
e 37 53
e 37 57
e 37 71
e 37 86
e 37 88
e 37 90
e 37 101
e 37 108
e 37 114
e 37 115
e 37 118
e 37 122
e 37 123
e 37 136
e 37 152
e 37 156
e 37 160
e 37 162
e 37 163
e 37 169
e 37 174
e 37 178
e 37 179
e 37 180
e 37 182
e 37 195
e 38 39
e 38 42
e 38 47
e 38 51
e 38 61
e 38 66
e 38 79
e 38 87
e 38 91
e 38 92
e 38 100
e 38 103
e 38 110
e 38 111
e 38 112
e 38 113
e 38 118
e 38 123
e 38 125
e 38 133
e 38 138
e 38 139
e 38 148
e 38 156
e 38 157
e 38 161
e 38 162
e 38 169
e 38 173
e 38 180
e 38 181
e 38 193
e 38 194
e 38 196
e 38 199
e 39 46
e 39 50
e 39 54
e 39 55
e 39 58
e 39 63
e 39 66
e 39 72
e 39 77
e 39 84
e 39 85
e 39 91
e 39 98
e 39 108
e 39 112
e 39 114
e 39 118
e 39 122
e 39 150
e 39 153
e 39 154
e 39 159
e 39 168
e 39 178
e 39 179
e 39 181
e 39 182
e 39 185
e 39 187
e 39 191
e 39 200
e 40 48
e 40 51
e 40 54
e 40 58
e 40 60
e 40 64
e 40 69
e 40 70
e 40 85
e 40 94
e 40 96
e 40 97
e 40 102
e 40 109
e 40 113
e 40 117
e 40 130
e 40 131
e 40 152
e 40 160
e 40 162
e 40 164
e 40 166
e 40 169
e 40 171
e 40 181
e 40 185
e 40 186
e 41 50
e 41 53
e 41 59
e 41 68
e 41 81
e 41 83
e 41 93
e 41 97
e 41 99
e 41 101
e 41 104
e 41 112
e 41 115
e 41 122
e 41 126
e 41 129
e 41 145
e 41 152
e 41 164
e 41 168
e 41 169
e 41 173
e 41 181
e 41 185
e 41 198
e 41 199
e 42 44
e 42 48
e 42 62
e 42 65
e 42 67
e 42 72
e 42 81
e 42 83
e 42 89
e 42 94
e 42 95
e 42 97
e 42 101
e 42 109
e 42 112
e 42 113
e 42 118
e 42 123
e 42 126
e 42 128
e 42 132
e 42 133
e 42 140
e 42 141
e 42 143
e 42 160
e 42 162
e 42 164
e 42 165
e 42 173
e 42 174
e 42 176
e 42 181
e 42 182
e 42 184
e 42 186
e 42 187
e 42 198
e 43 46
e 43 47
e 43 51
e 43 58
e 43 73
e 43 75
e 43 76
e 43 79
e 43 83
e 43 85
e 43 87
e 43 92
e 43 104
e 43 105
e 43 108
e 43 109
e 43 114
e 43 117
e 43 124
e 43 129
e 43 131
e 43 136
e 43 139
e 43 149
e 43 154
e 43 159
e 43 170
e 43 172
e 43 176
e 43 190
e 43 195
e 44 49
e 44 55
e 44 58
e 44 59
e 44 60
e 44 64
e 44 78
e 44 81
e 44 83
e 44 85
e 44 94
e 44 96
e 44 101
e 44 104
e 44 105
e 44 108
e 44 110
e 44 114
e 44 117
e 44 120
e 44 124
e 44 132
e 44 138
e 44 141
e 44 144
e 44 153
e 44 157
e 44 163
e 44 168
e 44 170
e 44 171
e 44 186
e 44 187
e 44 191
e 44 195
e 44 196
e 44 200
e 45 47
e 45 62
e 45 83
e 45 84
e 45 86
e 45 93
e 45 94
e 45 96
e 45 107
e 45 112
e 45 115
e 45 120
e 45 124
e 45 134
e 45 135
e 45 142
e 45 162
e 45 166
e 45 167
e 45 169
e 45 171
e 45 174
e 45 180
e 45 184
e 45 189
e 45 193
e 46 51
e 46 54
e 46 55
e 46 60
e 46 64
e 46 66
e 46 71
e 46 72
e 46 74
e 46 75
e 46 78
e 46 83
e 46 92
e 46 98
e 46 103
e 46 111
e 46 116
e 46 117
e 46 119
e 46 128
e 46 138
e 46 151
e 46 159
e 46 162
e 46 164
e 46 177
e 46 181
e 46 183
e 46 189
e 46 191
e 46 193
e 46 197
e 46 200
e 47 48
e 47 56
e 47 76
e 47 83
e 47 84
e 47 90
e 47 96
e 47 106
e 47 114
e 47 117
e 47 121
e 47 123
e 47 127
e 47 130
e 47 133
e 47 140
e 47 141
e 47 142
e 47 143
e 47 144
e 47 148
e 47 154
e 47 171
e 47 180
e 47 181
e 47 185
e 47 186
e 47 187
e 47 197
e 47 198
e 48 52
e 48 55
e 48 62
e 48 65
e 48 71
e 48 80
e 48 88
e 48 89
e 48 92
e 48 99
e 48 100
e 48 107
e 48 110
e 48 118
e 48 120
e 48 123
e 48 131
e 48 136
e 48 139
e 48 144
e 48 145
e 48 149
e 48 151
e 48 165
e 48 171
e 48 174
e 48 177
e 48 188
e 48 189
e 49 53
e 49 56
e 49 60
e 49 70
e 49 71
e 49 72
e 49 75
e 49 77
e 49 81
e 49 82
e 49 93
e 49 99
e 49 104
e 49 114
e 49 117
e 49 118
e 49 135
e 49 140
e 49 143
e 49 144
e 49 148
e 49 149
e 49 155
e 49 164
e 49 165
e 49 166
e 49 181
e 49 191
e 49 192
e 49 195
e 49 198
e 49 199
e 50 55
e 50 57
e 50 79
e 50 80
e 50 87
e 50 95
e 50 108
e 50 110
e 50 115
e 50 127
e 50 129
e 50 132
e 50 136
e 50 142
e 50 152
e 50 153
e 50 154
e 50 155
e 50 157
e 50 158
e 50 159
e 50 160
e 50 161
e 50 162
e 50 165
e 50 168
e 50 171
e 50 173
e 50 191
e 50 192
e 50 195
e 50 199
e 51 53
e 51 56
e 51 61
e 51 72
e 51 74
e 51 75
e 51 76
e 51 80
e 51 91
e 51 94
e 51 102
e 51 106
e 51 107
e 51 112
e 51 113
e 51 116
e 51 118
e 51 120
e 51 124
e 51 128
e 51 144
e 51 146
e 51 147
e 51 150
e 51 151
e 51 156
e 51 162
e 51 164
e 51 171
e 51 172
e 51 173
e 51 178
e 51 194
e 51 195
e 51 199
e 52 56
e 52 61
e 52 65
e 52 67
e 52 69
e 52 71
e 52 74
e 52 75
e 52 76
e 52 79
e 52 86
e 52 88
e 52 90
e 52 92
e 52 97
e 52 103
e 52 107
e 52 110
e 52 119
e 52 125
e 52 133
e 52 148
e 52 149
e 52 151
e 52 162
e 52 169
e 52 171
e 52 177
e 52 181
e 52 183
e 52 184
e 52 191
e 52 199
e 52 200
e 53 56
e 53 57
e 53 58
e 53 65
e 53 75
e 53 81
e 53 106
e 53 107
e 53 112
e 53 118
e 53 123
e 53 128
e 53 131
e 53 132
e 53 139
e 53 141
e 53 149
e 53 156
e 53 157
e 53 161
e 53 162
e 53 164
e 53 178
e 53 182
e 53 191
e 53 194
e 53 195
e 53 196
e 53 197
e 53 199
e 54 56
e 54 62
e 54 66
e 54 74
e 54 78
e 54 83
e 54 84
e 54 90
e 54 91
e 54 95
e 54 97
e 54 103
e 54 106
e 54 107
e 54 113
e 54 118
e 54 119
e 54 120
e 54 122
e 54 135
e 54 137
e 54 138
e 54 148
e 54 151
e 54 153
e 54 161
e 54 165
e 54 166
e 54 172
e 54 179
e 54 180
e 54 192
e 54 193
e 54 195
e 54 198
e 54 199
e 55 56
e 55 60
e 55 68
e 55 69
e 55 71
e 55 75
e 55 100
e 55 104
e 55 105
e 55 109
e 55 114
e 55 117
e 55 120
e 55 121
e 55 125
e 55 130
e 55 131
e 55 145
e 55 148
e 55 149
e 55 152
e 55 159
e 55 163
e 55 167
e 55 171
e 55 173
e 55 174
e 55 182
e 55 191
e 55 198
e 55 199
e 55 200
e 56 76
e 56 77
e 56 79
e 56 83
e 56 84
e 56 88
e 56 96
e 56 111
e 56 112
e 56 115
e 56 118
e 56 120
e 56 136
e 56 142
e 56 144
e 56 152
e 56 159
e 56 167
e 56 170
e 56 171
e 56 172
e 56 178
e 56 184
e 56 186
e 56 197
e 56 199
e 56 200
e 57 65
e 57 70
e 57 73
e 57 78
e 57 82
e 57 83
e 57 86
e 57 90
e 57 98
e 57 108
e 57 110
e 57 116
e 57 118
e 57 120
e 57 121
e 57 122
e 57 125
e 57 127
e 57 128
e 57 129
e 57 139
e 57 143
e 57 145
e 57 152
e 57 153
e 57 171
e 57 172
e 57 173
e 57 175
e 57 181
e 57 185
e 57 187
e 57 191
e 57 194
e 57 198
e 58 59
e 58 67
e 58 70
e 58 83
e 58 88
e 58 90
e 58 97
e 58 99
e 58 101
e 58 103
e 58 116
e 58 117
e 58 122
e 58 124
e 58 126
e 58 128
e 58 142
e 58 148
e 58 155
e 58 159
e 58 162
e 58 170
e 58 174
e 58 176
e 58 180
e 58 184
e 58 185
e 58 194
e 59 61
e 59 66
e 59 72
e 59 80
e 59 102
e 59 105
e 59 107
e 59 110
e 59 123
e 59 126
e 59 127
e 59 135
e 59 141
e 59 142
e 59 145
e 59 146
e 59 174
e 59 175
e 59 177
e 59 180
e 59 184
e 59 200
e 60 69
e 60 70
e 60 77
e 60 78
e 60 84
e 60 92
e 60 95
e 60 96
e 60 112
e 60 123
e 60 125
e 60 128
e 60 129
e 60 134
e 60 135
e 60 136
e 60 139
e 60 141
e 60 148
e 60 157
e 60 158
e 60 159
e 60 163
e 60 164
e 60 170
e 60 173
e 60 177
e 60 187
e 60 188
e 60 189
e 60 191
e 60 197
e 60 198
e 60 199
e 60 200
e 61 74
e 61 76
e 61 78
e 61 81
e 61 85
e 61 86
e 61 89
e 61 92
e 61 95
e 61 97
e 61 104
e 61 105
e 61 108
e 61 110
e 61 112
e 61 119
e 61 120
e 61 124
e 61 126
e 61 130
e 61 135
e 61 136
e 61 140
e 61 145
e 61 168
e 61 169
e 61 172
e 61 179
e 61 183
e 61 193
e 61 198
e 62 73
e 62 83
e 62 84
e 62 90
e 62 93
e 62 95
e 62 96
e 62 100
e 62 103
e 62 106
e 62 107
e 62 110
e 62 127
e 62 135
e 62 140
e 62 143
e 62 144
e 62 147
e 62 155
e 62 162
e 62 172
e 62 173
e 62 177
e 62 187
e 62 188
e 62 193
e 62 198
e 63 65
e 63 70
e 63 77
e 63 78
e 63 79
e 63 83
e 63 86
e 63 87
e 63 88
e 63 93
e 63 94
e 63 98
e 63 117
e 63 123
e 63 129
e 63 130
e 63 133
e 63 135
e 63 138
e 63 147
e 63 161
e 63 166
e 63 167
e 63 170
e 63 174
e 63 176
e 63 181
e 63 183
e 63 187
e 63 188
e 63 194
e 63 196
e 63 197
e 64 71
e 64 93
e 64 96
e 64 100
e 64 104
e 64 111
e 64 112
e 64 114
e 64 116
e 64 122
e 64 130
e 64 133
e 64 142
e 64 155
e 64 162
e 64 164
e 64 165
e 64 168
e 64 178
e 64 184
e 64 185
e 64 187
e 64 190
e 64 192
e 64 194
e 64 196
e 65 69
e 65 71
e 65 72
e 65 73
e 65 76
e 65 88
e 65 90
e 65 104
e 65 105
e 65 106
e 65 108
e 65 112
e 65 113
e 65 117
e 65 123
e 65 126
e 65 127
e 65 130
e 65 135
e 65 136
e 65 138
e 65 143
e 65 144
e 65 149
e 65 151
e 65 156
e 65 167
e 65 174
e 65 176
e 65 177
e 65 179
e 65 180
e 65 182
e 65 187
e 65 195
e 66 69
e 66 73
e 66 85
e 66 86
e 66 88
e 66 91
e 66 97
e 66 98
e 66 101
e 66 106
e 66 108
e 66 109
e 66 110
e 66 120
e 66 123
e 66 127
e 66 133
e 66 135
e 66 136
e 66 141
e 66 144
e 66 145
e 66 146
e 66 171
e 66 180
e 66 184
e 66 186
e 66 188
e 66 192
e 66 194
e 66 196
e 66 198
e 66 200
e 67 69
e 67 75
e 67 76
e 67 80
e 67 82
e 67 88
e 67 90
e 67 103
e 67 117
e 67 120
e 67 122
e 67 128
e 67 129
e 67 130
e 67 131
e 67 133
e 67 143
e 67 144
e 67 147
e 67 155
e 67 156
e 67 160
e 67 166
e 67 177
e 67 181
e 67 183
e 67 185
e 67 188
e 67 190
e 67 191
e 67 197
e 67 200
e 68 69
e 68 72
e 68 73
e 68 75
e 68 76
e 68 77
e 68 81
e 68 83
e 68 89
e 68 94
e 68 101
e 68 106
e 68 107
e 68 120
e 68 121
e 68 122
e 68 124
e 68 125
e 68 127
e 68 138
e 68 140
e 68 141
e 68 146
e 68 150
e 68 157
e 68 158
e 68 165
e 68 169
e 68 171
e 68 174
e 68 191
e 68 192
e 68 195
e 68 200
e 69 74
e 69 75
e 69 77
e 69 82
e 69 87
e 69 93
e 69 97
e 69 101
e 69 104
e 69 111
e 69 126
e 69 128
e 69 134
e 69 136
e 69 142
e 69 146
e 69 147
e 69 154
e 69 158
e 69 164
e 69 165
e 69 172
e 69 177
e 69 179
e 69 182
e 69 186
e 69 191
e 69 200
e 70 72
e 70 80
e 70 84
e 70 90
e 70 98
e 70 105
e 70 106
e 70 110
e 70 113
e 70 114
e 70 121
e 70 132
e 70 141
e 70 144
e 70 157
e 70 159
e 70 161
e 70 162
e 70 171
e 70 172
e 70 174
e 70 178
e 70 182
e 70 187
e 70 188
e 70 195
e 70 196
e 70 197
e 71 74
e 71 79
e 71 81
e 71 87
e 71 94
e 71 97
e 71 102
e 71 103
e 71 108
e 71 111
e 71 115
e 71 123
e 71 126
e 71 133
e 71 134
e 71 142
e 71 154
e 71 159
e 71 164
e 71 167
e 71 168
e 71 169
e 71 174
e 71 177
e 71 178
e 71 182
e 71 184
e 71 185
e 71 197
e 72 75
e 72 76
e 72 79
e 72 80
e 72 83
e 72 93
e 72 101
e 72 104
e 72 105
e 72 116
e 72 119
e 72 124
e 72 127
e 72 131
e 72 132
e 72 138
e 72 141
e 72 142
e 72 144
e 72 146
e 72 150
e 72 153
e 72 157
e 72 158
e 72 168
e 72 172
e 72 173
e 72 176
e 72 180
e 72 187
e 72 193
e 72 198
e 73 78
e 73 92
e 73 98
e 73 99
e 73 101
e 73 107
e 73 111
e 73 112
e 73 113
e 73 114
e 73 115
e 73 121
e 73 123
e 73 127
e 73 132
e 73 135
e 73 145
e 73 152
e 73 154
e 73 159
e 73 160
e 73 165
e 73 173
e 73 176
e 73 180
e 73 182
e 73 183
e 73 186
e 73 190
e 73 193
e 74 76
e 74 79
e 74 80
e 74 83
e 74 86
e 74 97
e 74 110
e 74 111
e 74 114
e 74 120
e 74 125
e 74 130
e 74 131
e 74 133
e 74 159
e 74 161
e 74 166
e 74 169
e 74 170
e 74 171
e 74 176
e 74 180
e 74 181
e 74 186
e 75 81
e 75 83
e 75 88
e 75 90
e 75 92
e 75 93
e 75 94
e 75 97
e 75 98
e 75 101
e 75 113
e 75 115
e 75 123
e 75 133
e 75 136
e 75 152
e 75 157
e 75 163
e 75 176
e 75 186
e 75 188
e 75 192
e 75 195
e 75 196
e 75 198
e 76 77
e 76 78
e 76 90
e 76 92
e 76 98
e 76 102
e 76 103
e 76 104
e 76 106
e 76 120
e 76 121
e 76 122
e 76 126
e 76 130
e 76 136
e 76 138
e 76 139
e 76 140
e 76 154
e 76 161
e 76 163
e 76 169
e 76 178
e 76 183
e 76 188
e 76 195
e 76 196
e 76 200
e 77 80
e 77 93
e 77 100
e 77 103
e 77 105
e 77 111
e 77 116
e 77 117
e 77 120
e 77 124
e 77 126
e 77 128
e 77 130
e 77 133
e 77 138
e 77 140
e 77 144
e 77 147
e 77 150
e 77 151
e 77 166
e 77 168
e 77 173
e 77 177
e 77 178
e 77 182
e 77 190
e 77 195
e 77 200
e 78 79
e 78 86
e 78 101
e 78 108
e 78 110
e 78 111
e 78 113
e 78 114
e 78 118
e 78 129
e 78 131
e 78 137
e 78 140
e 78 151
e 78 155
e 78 158
e 78 160
e 78 165
e 78 167
e 78 169
e 78 170
e 78 171
e 78 172
e 78 173
e 78 183
e 78 188
e 78 189
e 78 192
e 78 200
e 79 83
e 79 85
e 79 89
e 79 90
e 79 91
e 79 97
e 79 98
e 79 99
e 79 103
e 79 112
e 79 113
e 79 116
e 79 130
e 79 132
e 79 135
e 79 140
e 79 141
e 79 144
e 79 148
e 79 154
e 79 155
e 79 157
e 79 160
e 79 162
e 79 165
e 79 169
e 79 176
e 79 177
e 79 181
e 79 186
e 79 190
e 79 191
e 79 199
e 80 88
e 80 92
e 80 98
e 80 99
e 80 100
e 80 104
e 80 122
e 80 123
e 80 124
e 80 125
e 80 128
e 80 129
e 80 133
e 80 143
e 80 146
e 80 153
e 80 157
e 80 166
e 80 169
e 80 170
e 80 173
e 80 182
e 80 191
e 80 192
e 80 195
e 80 196
e 81 84
e 81 93
e 81 94
e 81 98
e 81 104
e 81 113
e 81 115
e 81 120
e 81 137
e 81 140
e 81 146
e 81 148
e 81 156
e 81 157
e 81 164
e 81 181
e 81 182
e 81 184
e 81 185
e 81 192
e 81 194
e 82 86
e 82 88
e 82 108
e 82 111
e 82 128
e 82 131
e 82 132
e 82 141
e 82 153
e 82 161
e 82 163
e 82 169
e 82 174
e 82 177
e 82 181
e 82 184
e 82 189
e 82 192
e 83 85
e 83 87
e 83 90
e 83 91
e 83 99
e 83 101
e 83 110
e 83 111
e 83 117
e 83 118
e 83 121
e 83 124
e 83 133
e 83 140
e 83 146
e 83 149
e 83 150
e 83 154
e 83 160
e 83 165
e 83 167
e 83 171
e 83 177
e 83 178
e 83 180
e 83 186
e 83 191
e 83 194
e 84 86
e 84 89
e 84 96
e 84 105
e 84 106
e 84 109
e 84 115
e 84 116
e 84 140
e 84 143
e 84 144
e 84 146
e 84 147
e 84 150
e 84 153
e 84 162
e 84 173
e 84 182
e 84 183
e 84 186
e 84 189
e 84 190
e 84 198
e 85 96
e 85 105
e 85 107
e 85 112
e 85 116
e 85 124
e 85 128
e 85 132
e 85 133
e 85 138
e 85 148
e 85 149
e 85 150
e 85 152
e 85 156
e 85 159
e 85 165
e 85 172
e 85 177
e 85 180
e 85 184
e 85 185
e 85 186
e 85 191
e 85 194
e 85 196
e 85 200
e 86 88
e 86 89
e 86 92
e 86 97
e 86 98
e 86 100
e 86 115
e 86 117
e 86 119
e 86 128
e 86 136
e 86 140
e 86 148
e 86 150
e 86 156
e 86 159
e 86 160
e 86 163
e 86 176
e 86 179
e 86 183
e 86 193
e 86 195
e 87 92
e 87 100
e 87 104
e 87 109
e 87 114
e 87 116
e 87 117
e 87 118
e 87 134
e 87 141
e 87 146
e 87 150
e 87 155
e 87 157
e 87 159
e 87 162
e 87 184
e 87 188
e 87 189
e 87 190
e 87 195
e 87 197
e 87 198
e 87 199
e 87 200
e 88 91
e 88 94
e 88 96
e 88 101
e 88 103
e 88 110
e 88 115
e 88 137
e 88 142
e 88 143
e 88 155
e 88 163
e 88 173
e 88 180
e 88 181
e 88 184
e 88 187
e 88 188
e 88 192
e 88 196
e 88 199
e 89 92
e 89 93
e 89 105
e 89 108
e 89 109
e 89 111
e 89 123
e 89 124
e 89 125
e 89 134
e 89 135
e 89 140
e 89 143
e 89 144
e 89 157
e 89 161
e 89 167
e 89 180
e 89 181
e 89 182
e 89 184
e 89 185
e 89 188
e 89 194
e 89 195
e 89 198
e 90 94
e 90 101
e 90 104
e 90 113
e 90 121
e 90 123
e 90 130
e 90 140
e 90 148
e 90 152
e 90 153
e 90 156
e 90 162
e 90 163
e 90 170
e 90 179
e 90 181
e 90 182
e 90 183
e 90 191
e 90 199
e 90 200
e 91 92
e 91 96
e 91 99
e 91 104
e 91 110
e 91 114
e 91 118
e 91 124
e 91 134
e 91 143
e 91 147
e 91 148
e 91 152
e 91 158
e 91 159
e 91 161
e 91 163
e 91 168
e 91 189
e 91 198
e 92 94
e 92 95
e 92 111
e 92 115
e 92 118
e 92 128
e 92 131
e 92 133
e 92 137
e 92 142
e 92 145
e 92 156
e 92 158
e 92 160
e 92 174
e 92 178
e 92 182
e 92 183
e 92 184
e 92 185
e 92 189
e 93 97
e 93 98
e 93 110
e 93 130
e 93 134
e 93 135
e 93 136
e 93 173
e 93 177
e 93 183
e 93 196
e 93 200
e 94 97
e 94 101
e 94 103
e 94 119
e 94 125
e 94 126
e 94 129
e 94 131
e 94 139
e 94 142
e 94 148
e 94 150
e 94 153
e 94 155
e 94 167
e 94 170
e 94 172
e 94 173
e 94 184
e 94 185
e 94 189
e 94 195
e 95 96
e 95 97
e 95 103
e 95 110
e 95 115
e 95 116
e 95 124
e 95 137
e 95 139
e 95 153
e 95 160
e 95 163
e 95 165
e 95 175
e 95 187
e 95 196
e 95 198
e 95 200
e 96 97
e 96 111
e 96 117
e 96 118
e 96 125
e 96 126
e 96 132
e 96 134
e 96 135
e 96 139
e 96 143
e 96 145
e 96 146
e 96 150
e 96 153
e 96 154
e 96 156
e 96 159
e 96 185
e 96 188
e 96 192
e 96 197
e 97 98
e 97 109
e 97 116
e 97 118
e 97 124
e 97 125
e 97 128
e 97 132
e 97 137
e 97 139
e 97 140
e 97 142
e 97 147
e 97 153
e 97 159
e 97 161
e 97 162
e 97 170
e 97 177
e 97 185
e 97 190
e 97 192
e 97 195
e 97 197
e 98 106
e 98 113
e 98 119
e 98 120
e 98 121
e 98 123
e 98 128
e 98 135
e 98 141
e 98 142
e 98 159
e 98 162
e 98 163
e 98 169
e 98 171
e 98 172
e 98 179
e 98 183
e 98 187
e 98 190
e 98 191
e 99 102
e 99 112
e 99 115
e 99 122
e 99 132
e 99 134
e 99 139
e 99 147
e 99 152
e 99 159
e 99 166
e 99 169
e 99 172
e 99 186
e 99 191
e 99 194
e 99 195
e 100 122
e 100 124
e 100 128
e 100 131
e 100 135
e 100 138
e 100 141
e 100 142
e 100 143
e 100 149
e 100 152
e 100 154
e 100 156
e 100 160
e 100 166
e 100 168
e 100 170
e 100 174
e 100 180
e 100 183
e 100 185
e 100 187
e 100 188
e 100 190
e 100 191
e 100 198
e 101 103
e 101 105
e 101 111
e 101 112
e 101 115
e 101 117
e 101 122
e 101 126
e 101 136
e 101 139
e 101 141
e 101 144
e 101 146
e 101 147
e 101 148
e 101 151
e 101 153
e 101 160
e 101 162
e 101 164
e 101 174
e 101 183
e 101 184
e 101 185
e 101 191
e 101 195
e 101 197
e 102 107
e 102 117
e 102 118
e 102 119
e 102 120
e 102 124
e 102 127
e 102 128
e 102 140
e 102 149
e 102 162
e 102 164
e 102 166
e 102 169
e 102 174
e 102 177
e 102 178
e 102 179
e 102 181
e 102 184
e 102 185
e 102 191
e 102 193
e 102 196
e 103 114
e 103 118
e 103 119
e 103 121
e 103 128
e 103 142
e 103 143
e 103 154
e 103 155
e 103 164
e 103 167
e 103 171
e 103 176
e 103 186
e 103 194
e 104 112
e 104 116
e 104 128
e 104 134
e 104 138
e 104 141
e 104 145
e 104 147
e 104 150
e 104 153
e 104 157
e 104 162
e 104 164
e 104 166
e 104 168
e 104 176
e 104 188
e 104 189
e 104 194
e 104 195
e 104 197
e 104 198
e 104 199
e 105 109
e 105 112
e 105 121
e 105 123
e 105 127
e 105 131
e 105 133
e 105 134
e 105 137
e 105 140
e 105 147
e 105 150
e 105 163
e 105 177
e 105 179
e 105 184
e 105 186
e 105 190
e 105 197
e 105 198
e 105 200
e 106 123
e 106 125
e 106 129
e 106 138
e 106 143
e 106 148
e 106 149
e 106 159
e 106 164
e 106 177
e 106 183
e 106 184
e 106 185
e 106 195
e 107 109
e 107 110
e 107 116
e 107 121
e 107 124
e 107 125
e 107 129
e 107 131
e 107 132
e 107 135
e 107 137
e 107 140
e 107 145
e 107 155
e 107 158
e 107 174
e 107 176
e 107 177
e 107 178
e 107 181
e 107 183
e 107 187
e 107 194
e 107 197
e 108 112
e 108 115
e 108 116
e 108 118
e 108 125
e 108 131
e 108 135
e 108 137
e 108 145
e 108 147
e 108 148
e 108 149
e 108 150
e 108 154
e 108 155
e 108 161
e 108 165
e 108 169
e 108 175
e 108 191
e 108 195
e 108 197
e 108 198
e 109 112
e 109 118
e 109 120
e 109 128
e 109 131
e 109 138
e 109 141
e 109 162
e 109 164
e 109 167
e 109 173
e 109 174
e 109 178
e 109 181
e 109 182
e 110 114
e 110 121
e 110 122
e 110 126
e 110 129
e 110 134
e 110 136
e 110 137
e 110 147
e 110 151
e 110 152
e 110 161
e 110 168
e 110 171
e 110 174
e 110 180
e 110 198
e 111 116
e 111 118
e 111 120
e 111 121
e 111 143
e 111 155
e 111 164
e 111 179
e 111 182
e 111 190
e 111 191
e 111 196
e 112 114
e 112 115
e 112 118
e 112 121
e 112 126
e 112 143
e 112 145
e 112 148
e 112 169
e 112 174
e 112 177
e 112 183
e 112 184
e 112 186
e 112 189
e 112 192
e 112 193
e 112 197
e 113 114
e 113 117
e 113 126
e 113 134
e 113 135
e 113 136
e 113 138
e 113 145
e 113 146
e 113 151
e 113 153
e 113 154
e 113 160
e 113 164
e 113 169
e 113 171
e 113 175
e 113 180
e 113 183
e 113 184
e 113 185
e 113 186
e 113 188
e 113 195
e 113 198
e 114 116
e 114 120
e 114 126
e 114 130
e 114 153
e 114 154
e 114 160
e 114 166
e 114 167
e 114 178
e 114 184
e 114 185
e 114 192
e 114 193
e 114 197
e 115 127
e 115 137
e 115 139
e 115 146
e 115 153
e 115 154
e 115 161
e 115 168
e 115 176
e 115 177
e 115 178
e 115 180
e 115 183
e 115 184
e 115 189
e 115 196
e 116 117
e 116 128
e 116 135
e 116 137
e 116 141
e 116 146
e 116 147
e 116 154
e 116 155
e 116 156
e 116 157
e 116 159
e 116 164
e 116 175
e 116 177
e 116 178
e 116 180
e 116 184
e 116 188
e 116 189
e 116 195
e 116 196
e 117 136
e 117 140
e 117 145
e 117 147
e 117 155
e 117 156
e 117 158
e 117 169
e 117 171
e 117 172
e 117 175
e 117 176
e 117 178
e 117 180
e 117 185
e 117 186
e 117 193
e 117 196
e 117 199
e 118 120
e 118 121
e 118 126
e 118 127
e 118 131
e 118 136
e 118 138
e 118 143
e 118 144
e 118 145
e 118 146
e 118 147
e 118 148
e 118 155
e 118 158
e 118 159
e 118 160
e 118 165
e 118 173
e 118 176
e 118 181
e 118 182
e 118 194
e 118 195
e 119 120
e 119 129
e 119 130
e 119 131
e 119 133
e 119 138
e 119 139
e 119 142
e 119 145
e 119 146
e 119 147
e 119 154
e 119 155
e 119 162
e 119 163
e 119 165
e 119 168
e 119 170
e 119 178
e 119 186
e 119 198
e 119 199
e 119 200
e 120 126
e 120 131
e 120 134
e 120 141
e 120 146
e 120 147
e 120 156
e 120 157
e 120 159
e 120 161
e 120 162
e 120 165
e 120 168
e 120 174
e 120 180
e 120 183
e 120 190
e 120 191
e 120 192
e 120 196
e 120 199
e 120 200
e 121 123
e 121 133
e 121 134
e 121 139
e 121 142
e 121 147
e 121 154
e 121 159
e 121 165
e 121 169
e 121 173
e 121 175
e 121 178
e 121 182
e 121 190
e 121 191
e 121 192
e 122 133
e 122 136
e 122 142
e 122 144
e 122 148
e 122 153
e 122 158
e 122 161
e 122 168
e 122 169
e 122 170
e 122 179
e 122 180
e 122 182
e 122 183
e 122 184
e 122 185
e 122 192
e 122 195
e 122 199
e 123 124
e 123 128
e 123 137
e 123 138
e 123 145
e 123 168
e 123 169
e 123 170
e 123 177
e 123 180
e 123 198
e 124 126
e 124 127
e 124 130
e 124 134
e 124 136
e 124 138
e 124 139
e 124 142
e 124 149
e 124 151
e 124 167
e 124 169
e 124 180
e 124 185
e 124 188
e 124 192
e 124 195
e 124 196
e 124 198
e 125 126
e 125 127
e 125 128
e 125 129
e 125 134
e 125 136
e 125 143
e 125 149
e 125 152
e 125 160
e 125 162
e 125 165
e 125 174
e 125 178
e 125 180
e 125 183
e 125 185
e 125 197
e 125 198
e 125 199
e 126 131
e 126 138
e 126 139
e 126 147
e 126 148
e 126 161
e 126 163
e 126 167
e 126 169
e 126 172
e 126 173
e 126 175
e 126 176
e 126 178
e 126 187
e 126 190
e 126 192
e 126 196
e 127 130
e 127 133
e 127 137
e 127 144
e 127 146
e 127 154
e 127 156
e 127 159
e 127 174
e 127 178
e 127 180
e 127 181
e 127 192
e 127 193
e 127 195
e 127 196
e 127 197
e 128 129
e 128 131
e 128 135
e 128 137
e 128 141
e 128 142
e 128 146
e 128 150
e 128 152
e 128 161
e 128 167
e 128 170
e 128 185
e 128 193
e 128 195
e 128 196
e 129 133
e 129 140
e 129 144
e 129 149
e 129 155
e 129 162
e 129 170
e 129 172
e 129 188
e 129 189
e 129 190
e 129 191
e 129 195
e 129 197
e 130 133
e 130 135
e 130 136
e 130 147
e 130 148
e 130 149
e 130 162
e 130 175
e 130 192
e 130 196
e 130 200
e 131 133
e 131 147
e 131 159
e 131 162
e 131 169
e 131 171
e 131 172
e 131 177
e 131 182
e 131 185
e 131 193
e 131 194
e 131 197
e 132 134
e 132 138
e 132 145
e 132 150
e 132 153
e 132 154
e 132 166
e 132 169
e 132 170
e 132 176
e 132 182
e 132 183
e 132 189
e 132 191
e 132 192
e 132 195
e 133 140
e 133 152
e 133 153
e 133 156
e 133 158
e 133 165
e 133 170
e 133 171
e 133 174
e 133 179
e 133 185
e 133 186
e 133 188
e 134 135
e 134 136
e 134 139
e 134 143
e 134 149
e 134 160
e 134 167
e 134 171
e 134 172
e 134 177
e 134 190
e 135 141
e 135 148
e 135 155
e 135 156
e 135 162
e 135 163
e 135 165
e 135 169
e 135 170
e 135 171
e 135 176
e 135 182
e 135 189
e 135 193
e 136 137
e 136 140
e 136 149
e 136 152
e 136 154
e 136 167
e 136 181
e 136 185
e 136 190
e 136 192
e 136 194
e 137 143
e 137 150
e 137 153
e 137 155
e 137 162
e 137 164
e 137 167
e 137 172
e 137 173
e 137 189
e 137 191
e 138 141
e 138 144
e 138 149
e 138 150
e 138 157
e 138 160
e 138 163
e 138 167
e 138 169
e 138 173
e 138 175
e 138 176
e 138 196
e 138 200
e 139 142
e 139 150
e 139 156
e 139 160
e 139 169
e 139 172
e 139 173
e 139 178
e 139 181
e 139 186
e 139 195
e 139 199
e 140 142
e 140 143
e 140 147
e 140 155
e 140 156
e 140 159
e 140 161
e 140 169
e 140 170
e 140 180
e 140 184
e 140 187
e 140 193
e 140 194
e 140 197
e 140 198
e 141 146
e 141 157
e 141 158
e 141 163
e 141 165
e 141 168
e 141 183
e 141 187
e 141 192
e 141 197
e 141 198
e 142 149
e 142 158
e 142 160
e 142 169
e 142 170
e 142 171
e 142 174
e 142 176
e 142 178
e 142 183
e 142 189
e 142 193
e 143 153
e 143 157
e 143 170
e 143 173
e 143 176
e 143 178
e 143 198
e 144 163
e 144 169
e 144 174
e 144 175
e 144 181
e 144 189
e 144 191
e 144 192
e 144 197
e 144 200
e 145 148
e 145 149
e 145 156
e 145 162
e 145 173
e 145 179
e 145 193
e 146 148
e 146 158
e 146 161
e 146 168
e 146 169
e 146 183
e 146 185
e 146 191
e 146 192
e 146 196
e 147 151
e 147 152
e 147 153
e 147 155
e 147 158
e 147 160
e 147 168
e 147 170
e 147 179
e 147 185
e 147 189
e 147 192
e 147 199
e 147 200
e 148 150
e 148 151
e 148 152
e 148 154
e 148 155
e 148 164
e 148 167
e 148 176
e 148 177
e 148 181
e 148 187
e 148 199
e 149 155
e 149 166
e 149 171
e 149 173
e 149 176
e 149 183
e 149 192
e 149 193
e 150 158
e 150 160
e 150 165
e 150 168
e 150 171
e 150 179
e 150 180
e 150 181
e 150 182
e 150 183
e 150 190
e 150 195
e 150 197
e 151 156
e 151 165
e 151 169
e 151 181
e 151 182
e 151 187
e 151 188
e 151 194
e 151 196
e 151 200
e 152 156
e 152 166
e 152 167
e 152 174
e 152 182
e 152 192
e 152 194
e 152 196
e 152 197
e 152 200
e 153 161
e 153 171
e 153 173
e 153 178
e 153 181
e 153 183
e 153 191
e 153 196
e 153 197
e 153 198
e 154 159
e 154 162
e 154 165
e 154 167
e 154 168
e 154 173
e 154 177
e 154 178
e 154 181
e 154 182
e 154 189
e 154 191
e 155 159
e 155 160
e 155 161
e 155 165
e 155 175
e 155 189
e 155 190
e 155 192
e 156 159
e 156 160
e 156 163
e 156 171
e 156 172
e 156 177
e 156 187
e 156 193
e 156 194
e 156 198
e 156 199
e 156 200
e 157 175
e 157 194
e 158 166
e 158 169
e 158 170
e 158 171
e 158 173
e 158 177
e 158 178
e 158 179
e 158 181
e 158 184
e 158 187
e 159 160
e 159 162
e 159 163
e 159 165
e 159 168
e 159 170
e 159 174
e 159 177
e 159 181
e 159 185
e 159 194
e 160 169
e 160 173
e 160 179
e 160 181
e 160 184
e 160 185
e 160 186
e 160 187
e 160 193
e 161 164
e 161 169
e 161 172
e 161 173
e 161 179
e 161 184
e 161 190
e 161 191
e 161 192
e 161 197
e 161 200
e 162 164
e 162 170
e 162 178
e 162 179
e 162 189
e 162 192
e 162 196
e 162 197
e 162 199
e 162 200
e 163 165
e 163 166
e 163 167
e 163 186
e 163 193
e 163 198
e 164 165
e 164 166
e 164 173
e 164 176
e 164 184
e 164 192
e 164 195
e 165 167
e 165 175
e 165 177
e 165 178
e 165 182
e 165 186
e 165 188
e 165 195
e 166 168
e 166 169
e 166 177
e 166 184
e 166 197
e 166 198
e 166 200
e 167 171
e 167 175
e 167 176
e 167 182
e 167 184
e 167 187
e 167 190
e 167 193
e 167 196
e 167 198
e 168 171
e 168 173
e 168 174
e 168 176
e 168 178
e 168 179
e 168 182
e 168 188
e 168 190
e 168 194
e 168 197
e 168 200
e 169 178
e 169 198
e 169 200
e 170 171
e 170 172
e 170 180
e 170 181
e 170 186
e 170 190
e 170 200
e 171 173
e 171 175
e 171 191
e 171 193
e 171 196
e 172 179
e 172 180
e 172 182
e 172 184
e 172 187
e 172 192
e 172 194
e 172 196
e 173 175
e 173 176
e 173 178
e 173 198
e 173 199
e 174 176
e 174 178
e 174 181
e 174 184
e 174 187
e 174 188
e 174 192
e 174 195
e 174 196
e 174 197
e 174 200
e 175 183
e 175 194
e 175 198
e 175 199
e 176 179
e 176 186
e 176 189
e 176 190
e 176 194
e 177 178
e 177 179
e 177 183
e 177 193
e 177 197
e 178 186
e 178 198
e 179 180
e 179 181
e 179 189
e 179 193
e 179 196
e 179 197
e 180 189
e 180 191
e 180 194
e 180 197
e 180 200
e 181 183
e 181 184
e 181 187
e 181 196
e 181 199
e 182 185
e 182 197
e 184 185
e 184 186
e 184 198
e 185 186
e 185 187
e 185 189
e 186 188
e 186 190
e 186 192
e 186 193
e 186 195
e 187 188
e 187 197
e 187 199
e 188 194
e 188 198
e 188 199
e 190 192
e 190 194
e 190 197
e 190 198
e 190 200
e 191 200
e 192 197
e 192 198
e 192 200
e 193 197
e 193 198
e 194 196
e 195 196
e 195 199
e 196 198
e 196 200
e 197 198
e 198 200
e 199 200
